&CONTROL
  calculation = 'vc-relax'
  etot_conv_thr =   1.0000000000d-04
  forc_conv_thr =   1.0000000000d-05
  outdir = './out/'
  prefix = 'graphite'
  pseudo_dir = './pseudo/'
  tprnfor = .true.
  tstress = .true.
  verbosity = 'high'
  nstep = 500
/
&SYSTEM
  degauss =   2.0000000000d-02
  ecutrho =   3.6000000000d+02
  ecutwfc =   4.5000000000d+01
  ibrav = 0
  nat = 4
  nosym = .false.
  ntyp = 1
  occupations = 'smearing'
  smearing = 'cold'
/
&ELECTRONS
  conv_thr =   1.0000000000d-7
  electron_maxstep = 500
  mixing_beta =   2.0000000000d-01
/

&IONS
/
&CELL
  press_conv_thr = 0.1
  cell_dofree = 'epitaxial_ab'
/

ATOMIC_SPECIES
C      12.0107 C.pbe-n-kjpaw_psl.1.0.0.UPF
ATOMIC_POSITIONS crystal
C            0.0000000000       0.0000000000       0.2500000000
C            0.0000000000       0.0000000000       0.7500000000
C            0.3333333300       0.6666666700       0.2500000000
C            0.6666666700       0.3333333300       0.7500000000

K_POINTS automatic
20 20 6 0 0 0

CELL_PARAMETERS angstrom
      2.4672912600       0.0000000000       0.0000000000
     -1.2336456300       2.1367369097       0.0000000000
      0.0000000000       0.0000000000       7.8030730000
