!    ibrav = 0, nat = 16, ntyp = 1
CELL_PARAMETERS bohr
  -10.2000000224418770    0.0000000000000000   10.2000000224418770
    0.0000000000000000   10.2000000224418770   10.2000000224418770
  -10.2000000224418770   10.2000000224418770    0.0000000000000000
ATOMIC_SPECIES
 Si   28.08550   Si.pbe-n-rrkjus_psl.1.0.0.UPF
ATOMIC_POSITIONS crystal
 Si   0.0013864838816290  0.0000000000000000  0.0000000000000000
 Si   0.5000000000000000  0.0000000000000000  0.0000000000000000
 Si   0.0000000000000000  0.5000000000000000  0.0000000000000000
 Si   0.5000000000000000  0.5000000000000000  0.0000000000000000
 Si   0.0000000000000000  0.0000000000000000  0.5000000000000000
 Si   0.5000000000000000  0.0000000000000000  0.5000000000000000
 Si   0.0000000000000000  0.5000000000000000  0.5000000000000000
 Si   0.5000000000000000  0.5000000000000000  0.5000000000000000
 Si   0.8749999999999998  0.3750000000000000  0.8749999999999999
 Si   0.3750000000000000  0.3750000000000000  0.8750000000000000
 Si   0.8749999999999999  0.8749999999999999  0.8749999999999999
 Si   0.3750000000000001  0.8749999999999999  0.8750000000000000
 Si   0.8749999999999998  0.3750000000000000  0.3750000000000000
 Si   0.3750000000000000  0.3750000000000000  0.3750000000000000
 Si   0.8749999999999999  0.8749999999999999  0.3749999999999999
 Si   0.3750000000000001  0.8749999999999999  0.3749999999999999