&inputpp
    prefix = 'graphene',
    outdir = './out'
    plot_num = 7
    kpoint=0
    kband=4
    lsign=.true.
/
&plot
    iflag=3
    output_format=6
    fileout='graphene_G5.cube'
/

