&inputpp
    prefix = 'graphene',
    outdir = './out'
    plot_num = 7
    kpoint=1
    kband=6
    lsign=.true.
/
&plot
    iflag=3
    output_format=6
    fileout='graphene_G6.cube'
/

