&CONTROL
  calculation = 'scf'
  etot_conv_thr =   1.0000000000d-05
  forc_conv_thr =   1.0000000000d-04
  outdir = './out/'
  prefix = 'graphene'
  pseudo_dir = '/home/take/src/SSSP_1.1.2_PBE_efficiency'
  tprnfor = .true.
  tstress = .true.
  verbosity = 'high'
/
&SYSTEM
  degauss =   0.01
  ecutrho =   150
  ecutwfc =   30
  ibrav = 0
  nat = 2
  nosym = .false.
  ntyp = 1
  occupations = 'smearing'
  smearing = 'cold'
  nbnd = 16
/
&ELECTRONS
  conv_thr =   8.0000000000d-8
  electron_maxstep = 80
  mixing_beta =   4.0000000000d-01
/
ATOMIC_SPECIES
C  12.0107  C.pbe-n-kjpaw_psl.1.0.0.UPF

ATOMIC_POSITIONS crystal
C   0.0000000000000000    0.000000000000000  0.5
C   0.3333333333333330    0.666666666666666  0.5

K_POINTS automatic
6 6 1 0 0 0

CELL_PARAMETERS angstrom
  2.460000   0.000000   0.000000
 -1.230000   2.130000   0.000000
  0.000000   0.000000  15.000000


