&bands
    outdir='./out/',
    prefix='silicon',
    filband='silicon.band'
    lsym=.true.
/
