&CONTROL
  calculation = 'bands'
  etot_conv_thr =   2.0000000000d-05
  forc_conv_thr =   1.0000000000d-04
  outdir = './out/'
  prefix = 'silicon'
  pseudo_dir = './pseudo/'
  tprnfor = .true.
  tstress = .true.
  verbosity = 'high'
/
&SYSTEM
  degauss =   2.0000000000d-02
  ecutrho =   2.4000000000d+02
  ecutwfc =   3.0000000000d+01
  ibrav = 0
  nat = 2
  nosym = .false.
  ntyp = 1
  occupations = 'smearing'
  smearing = 'cold'
  nbnd = 12
/
&ELECTRONS
  conv_thr =   4.0000000000d-10
  electron_maxstep = 80
  mixing_beta =   4.0000000000d-01
/
ATOMIC_SPECIES
Si     28.0855 Si.pbe-n-rrkjus_psl.1.0.0.UPF
ATOMIC_POSITIONS crystal
Si           0.0000000000       0.0000000000       0.0000000000
Si          -0.2500000000       0.7500000000      -0.2500000000

K_POINTS crystal_b
8
0.0000000000	0.0000000000	0.0000000000 20 ! Γ	
0.5000000000	0.0000000000	0.5000000000 20 ! X	
0.6250000000	0.2500000000	0.6250000000 0 ! U	
0.3750000000	0.3750000000	0.7500000000 20 ! K	
0.0000000000	0.0000000000	0.0000000000 20 ! Γ	
0.5000000000	0.5000000000	0.5000000000 20 ! L	
0.5000000000	0.2500000000	0.7500000000 20 ! W	
0.5000000000	0.0000000000	0.5000000000 0 ! X	

CELL_PARAMETERS angstrom
     -2.6988037638       0.0000000000       2.6988037638
      0.0000000000       2.6988037638       2.6988037638
     -2.6988037638       2.6988037638       0.0000000000
